72 72
7 26
11 19
34 43
32 24
23 50
9 40
30 15
20 35
3 65
36 11
18 48
9 72
28 2
33 36
8 54
22 69
8 22
33 18
13 4
34 53
29 7
12 44
18 66
19 64
10 56
5 52
14 17
10 61
12 60
27 34
3 1
14 38
17 37
16 70
31 39
21 8
1 46
11 6
26 14
6 33
32 45
7 16
24 71
35 58
15 23
1 25
25 30
28 49
29 5
19 57
21 51
30 3
2 29
17 13
4 27
31 62
13 21
4 42
24 55
23 41
26 31
20 47
2 10
27 59
22 20
36 28
35 68
25 63
15 32
5 9
16 12
6 67
